c colouring generated by benchmark framework
p edge 95 755
v 1 2
v 2 1
v 3 4
v 4 3
v 5 1
v 6 6
v 7 5
v 8 6
v 9 6
v 10 1
v 11 3
v 12 2
v 13 3
v 14 4
v 15 3
v 16 2
v 17 5
v 18 5
v 19 4
v 20 5
v 21 5
v 22 4
v 23 6
v 24 0
v 25 1
v 26 0
v 27 0
v 28 1
v 29 0
v 30 6
v 31 6
v 32 0
v 33 0
v 34 2
v 35 2
v 36 5
v 37 0
v 38 5
v 39 5
v 40 0
v 41 5
v 42 0
v 43 5
v 44 5
v 45 4
v 46 0
v 47 3
v 48 4
v 49 3
v 50 4
v 51 3
v 52 2
v 53 6
v 54 6
v 55 6
v 56 6
v 57 6
v 58 2
v 59 2
v 60 1
v 61 4
v 62 4
v 63 2
v 64 4
v 65 1
v 66 4
v 67 4
v 68 1
v 69 4
v 70 1
v 71 0
v 72 0
v 73 6
v 74 4
v 75 2
v 76 0
v 77 1
v 78 0
v 79 6
v 80 1
v 81 2
v 82 0
v 83 0
v 84 4
v 85 0
v 86 0
v 87 2
v 88 0
v 89 2
v 90 0
v 91 0
v 92 2
v 93 1
v 94 3
v 95 5
